c Random 8-CNF over 40 variables and 80 clauses
c Generated with `cnfgen`
c (C) 2012-2016 Massimo Lauria <lauria.massimo@gmail.com>
c https://massimolauria.github.io/cnfgen
c
c COMMAND LINE: cnfgen --output tmp-8-40-80.dimacs --output-format dimacs randkcnf 8 40 80
c
c sdimacs generated by gen-sdimacs
c
p cnf 40 80
r 0.5 1 2 3 4 5 6 7 8 9 10 11 12 13 14 15 16 17 18 19 20 0
e  21 22 23 24 25 26 27 28 29 30 31 32 33 34 35 36 37 38 39 40 0
17 -18 -27 29 30 34 35 36 0
3 -6 -8 14 -18 20 21 -22 0
1 -3 8 -17 19 27 32 -33 0
-11 22 -24 30 33 -37 -39 40 0
3 4 -21 -27 28 29 30 -33 0
-2 4 -6 10 -16 20 -29 36 0
2 -4 10 20 -28 33 38 39 0
-3 -8 15 21 -27 -35 -38 39 0
5 6 7 -9 -18 -23 33 -38 0
-10 11 -25 -27 28 -34 35 37 0
2 6 7 10 -13 17 18 20 0
-10 14 -21 23 26 28 34 -39 0
1 -12 21 -22 26 36 39 40 0
1 -15 -26 27 30 31 32 -35 0
7 8 9 -16 18 19 31 -40 0
-4 -5 -8 13 -17 28 -36 -38 0
-13 -18 21 23 -24 -25 31 -37 0
1 -2 -4 -14 -26 -28 -30 -36 0
-4 6 13 -17 -20 28 37 38 0
7 -8 12 19 26 30 -36 38 0
-4 5 -7 10 11 13 -23 39 0
-7 -10 -12 -16 27 -28 -29 40 0
2 -4 -11 13 -20 -22 23 37 0
6 7 -10 -14 -15 19 -31 -35 0
8 9 11 -12 -22 -37 38 39 0
-7 9 13 19 21 26 35 37 0
-1 8 -17 22 -26 -30 31 39 0
4 -12 13 -16 34 35 37 -38 0
14 -17 19 20 29 31 -33 37 0
1 -6 -15 -20 21 -26 -32 34 0
5 6 11 -12 21 29 30 -35 0
13 -15 -17 19 25 -30 -35 -36 0
-1 -19 25 28 -29 -32 -39 -40 0
1 8 12 17 -22 26 29 36 0
-9 -10 -21 -23 26 -30 -33 -40 0
-3 5 10 17 20 -30 -32 39 0
-3 8 -11 28 -30 31 -37 -39 0
6 8 -15 -21 24 31 -35 -38 0
4 -6 7 11 14 -20 -26 -28 0
-3 -4 -5 8 13 -15 25 -35 0
3 7 15 -24 27 -28 -32 -36 0
-5 15 24 -25 27 -30 35 -37 0
-12 13 -14 -26 -32 -33 36 -38 0
-6 -14 21 -24 30 35 37 38 0
-7 -10 13 17 19 23 27 -34 0
5 10 -15 -17 23 -28 -30 34 0
1 2 -8 10 -15 -16 -22 33 0
-4 10 11 -15 -17 -25 31 37 0
13 -19 20 -22 24 -27 28 -36 0
-4 -6 -14 -22 -29 31 39 40 0
5 -7 -9 11 -14 -16 -29 39 0
-11 24 -28 29 -32 34 -35 -38 0
-5 -9 11 17 18 -20 25 36 0
-2 -5 25 26 -30 -33 36 38 0
1 -10 -19 -27 30 36 -38 -39 0
-5 6 13 -14 16 -27 -28 30 0
6 10 26 -29 32 -34 -35 40 0
2 3 -4 10 11 -29 -33 39 0
4 7 17 -20 27 30 36 -37 0
-1 2 14 -16 -21 -26 32 36 0
2 -7 9 -11 16 31 37 38 0
4 -8 9 -19 20 -24 -26 -30 0
-1 -2 -3 -5 17 25 -31 35 0
1 3 13 16 20 -25 -30 -38 0
-1 4 -9 15 24 29 -31 -35 0
2 10 17 21 27 -29 -31 35 0
-3 18 19 24 -25 31 35 -39 0
-2 -5 15 16 -19 -26 36 -38 0
6 -11 -12 14 -19 -21 -27 -40 0
12 -13 -15 16 17 -28 -37 -40 0
-6 17 21 -26 28 -34 -35 36 0
5 -8 10 14 21 -37 38 -39 0
7 -11 20 -21 -24 -26 -30 34 0
7 10 -11 -20 22 -31 37 -38 0
-2 4 -14 20 22 -25 -29 -39 0
11 15 -22 24 26 -31 -32 -33 0
1 13 21 -25 26 -28 32 36 0
5 -6 -16 25 30 -32 -36 37 0
1 15 -16 21 -22 26 32 -40 0
4 15 -18 -19 -20 -24 -27 -29 0
